NAME : rc_207.3.6824042.tour
COMMENT : Length = 6824042
COMMENT : Found by LKH [Keld Helsgaun] Tue May  2 05:21:40 2017
TYPE : TOUR
DIMENSION : 33
TOUR_SECTION
1
3
17
6
25
22
14
16
12
10
11
13
27
26
31
32
28
30
19
29
21
33
5
18
4
2
15
8
7
9
20
24
23
-1
EOF
